\ENCODING=ISO-8859-1
\Problem name: 

Maximize
 obj: - a0 + a1 + a2 + 0.666666666666667 a3 + 0.833333333333333 a4
      + 0.166666666666667 a5 + a6 + a7 + 0.333333333333333 a9 + 0.5 a10 + a11
      + 0.833333333333333 a12 + a13 + a15 + 0.333333333333333 a16
      + 0.166666666666667 a17 + 0.166666666666667 a18 + a20 + a21
      + 0.333333333333333 a22 + a23 + 0.666666666666667 a24 + a25 + a26
      + 0.333333333333333 a28 + 0.333333333333333 a29 + 0.333333333333333 a30
      + a31 + a33 + 0.666666666666667 a34 + a35 + 0.333333333333333 a36 + a39
      + a40 + 0.333333333333333 a41 + 0.666666666666667 a42 + a43 + a44 + a45
      + 0.333333333333333 a48 + 0.166666666666667 a50 + 0.833333333333333 a52
      + a57 + 0.666666666666667 a59 + 0.5 a61 + 0.166666666666667 a65 + a69
      + 0.666666666666667 a73 + 0.333333333333333 a74 + 0.5 a75
      + 0.166666666666667 a76 + 0.666666666666667 a77 + 0.833333333333333 a78
      + 0.166666666666667 a79 + 0.333333333333333 a84 + 0.333333333333333 a85
      + 0.333333333333333 a89 + a95 + 0.666666666666667 a96
      + 0.666666666666667 a99 + 0.5 a100 + 0.166666666666667 a101
      + 0.833333333333333 a104 + 0.166666666666667 a105
      + 0.333333333333333 a109 + 0.666666666666667 a113
      + 0.166666666666667 a114 + 0.833333333333333 a115
      + 0.166666666666667 a116 + 0.833333333333333 a117
      + 0.666666666666667 a122 + 0.333333333333333 a124
Subject To
 c1:   - a0 - f0 + u1 - u2 + u3 - u4 + u5 - u6 + u7 - u8 + u9 - u10 + u11 - u12
       + u13 - u14 + u15 - u16 + u17 - u18 + u19 - u20 + u21 - u22 + u23 - u24
       + u25 - u26 + u27 - u28 + u29 - u30 + u31 - u32 + u33 - u34 + u35 - u36
       + u37 - u38 + u39 - u40 + u41 - u42 + u43 - u44 + u45 - u46 + u47 - u48
       + u49 - u50 + u51 - u52 + u53 - u54 + u55 - u56 + u57 - u58 + u59 - u60
       + u61 - u62 + u63 - u64 + u65 - u66 + u67 - u68 + u69 - u70 + u71 - u72
       + u73 - u74 + u75 - u76 + u77 - u78 + u79 - u80 + u81 - u82 + u83 - u84
       + u85 - u86 + u87 - u88 + u89 - u90 + u91 - u92 + u93 - u94 + u95 - u96
       + u97 - u98 + u99 - u100 + u101 - u102 + u103 - u104 + u105 - u106
       + u107 - u108 + u109 - u110 + u111 - u112 + u113 - u114 + u115 - u116
       + u117 - u118 + u119 - u120 + 2 u121 - 2 u122 + 2 u123 - 2 u124 + 2 u125
       - 2 u126 + 2 u127 - 2 u128 + 2 u129 - 2 u130 + 2 u131 - 2 u132 + 2 u133
       - 2 u134 + 2 u135 - 2 u136 + 2 u137 - 2 u138 + 2 u139 - 2 u140 + 2 u141
       - 2 u142 + 2 u143 - 2 u144 + 2 u145 - 2 u146 + 2 u147 - 2 u148 + 2 u149
       - 2 u150 + 2 u151 - 2 u152 + 2 u153 - 2 u154 + 2 u155 - 2 u156 + 2 u157
       - 2 u158 + 2 u159 - 2 u160 + 2 u161 - 2 u162 + 2 u163 - 2 u164 + 2 u165
       - 2 u166 + 2 u167 - 2 u168 + 2 u169 - 2 u170 + 2 u171 - 2 u172 + 2 u173
       - 2 u174 + 2 u175 - 2 u176 - 16 u177  = 0
 c2:   - a1 - f1 + u121 - u122 + u123 - u124  = 0
 c3:   - a2 - f2 + u1 - u2 + u123 - u124 + u125 - u126  = 0
 c4:   - a3 - f3 + u3 - u4 + u125 - u126 + u127 - u128  = 0
 c5:   - a4 - f4 + u5 - u6 + u127 - u128 + u129 - u130  = 0
 c6:   - a5 - f5 + u7 - u8 + u129 - u130 + u131 - u132  = 0
 c7:   - a6 - f6 + u9 - u10 + u131 - u132 + u133 - u134  = 0
 c8:   - a7 - f7 + u121 - u122 + u135 - u136  = 0
 c9:   - a9 - f9 + u13 - u14 + u125 - u126 + u139 - u140  = 0
 c10:  - a10 - f10 + u15 - u16 + u127 - u128 + u141 - u142  = 0
 c11:  - a11 - f11 + u17 - u18 + u129 - u130 + u143 - u144  = 0
 c12:  - a12 - f12 + u19 - u20 + u131 - u132 + u145 - u146  = 0
 c13:  - a13 - f13 + u21 - u22 + u133 - u134 + u147 - u148  = 0
 c14:  - a15 - f15 + u25 - u26 + u137 - u138 + u139 - u140  = 0
 c15:  - a16 - f16 + u27 - u28 + u139 - u140 + u141 - u142  = 0
 c16:  - a17 - f17 + u29 - u30 + u141 - u142 + u143 - u144  = 0
 c17:  - a18 - f18 + u31 - u32 + u143 - u144 + u145 - u146  = 0
 c18:  - a20 - f20 + u35 - u36 + u135 - u136 + u149 - u150  = 0
 c19:  - a21 - f21 + u37 - u38 + u137 - u138 + u151 - u152  = 0
 c20:  - a22 - f22 + u39 - u40 + u139 - u140 + u153 - u154  = 0
 c21:  - a23 - f23 + u41 - u42 + u141 - u142 + u155 - u156  = 0
 c22:  - a24 - f24 + u43 - u44 + u143 - u144 + u157 - u158  = 0
 c23:  - a25 - f25 + u45 - u46 + u145 - u146 + u159 - u160  = 0
 c24:  - a26 - f26 + u47 - u48 + u147 - u148 + u161 - u162  = 0
 c25:  - a28 - f28 + u51 - u52 + u151 - u152 + u153 - u154  = 0
 c26:  - a29 - f29 + u53 - u54 + u153 - u154 + u155 - u156  = 0
 c27:  - a30 - f30 + u55 - u56 + u155 - u156 + u157 - u158  = 0
 c28:  - a31 - f31 + u57 - u58 + u157 - u158 + u159 - u160  = 0
 c29:  - a33 - f33 + u61 - u62 + u149 - u150 + u163 - u164  = 0
 c30:  - a34 - f34 + u63 - u64 + u151 - u152 + u165 - u166  = 0
 c31:  - a35 - f35 + u65 - u66 + u153 - u154 + u167 - u168  = 0
 c32:  - a36 - f36 + u67 - u68 + u155 - u156 + u169 - u170  = 0
 c33:  - a39 - f39 + u73 - u74 + u161 - u162 + u175 - u176  = 0
 c34:  - a40 - f40 + u75 - u76 + u163 - u164 + u165 - u166  = 0
 c35:  - a41 - f41 + u77 - u78 + u165 - u166 + u167 - u168  = 0
 c36:  - a42 - f42 + u79 - u80 + u167 - u168 + u169 - u170  = 0
 c37:  - a43 - f43 + u81 - u82 + u169 - u170 + u171 - u172  = 0
 c38:  - a44 - f44 + u83 - u84 + u171 - u172 + u173 - u174  = 0
 c39:  - a45 - f45 + u85 - u86 + u173 - u174 + u175 - u176  = 0
 c40:  - a48 - f48 + u3 - u4 + u89 - u90 - u177  = 0
 c41:  - a50 - f50 + u5 - u6 + u91 - u92 - u177  = 0
 c42:  - a52 - f52 + u7 - u8 + u93 - u94  = 0
 c43:  - a57 - f57 + u11 - u12 + u87 - u88 - u177  = 0
 c44:  - a59 - f59 + u13 - u14 + u89 - u90  = 0
 c45:  - a61 - f61 + u15 - u16 + u91 - u92 - u177  = 0
 c46:  - a65 - f65 + u19 - u20 + u95 - u96 - u177  = 0
 c47:  - a69 - f69 + u23 - u24 + u97 - u98 - u177  = 0
 c48:  - a73 - f73 + u27 - u28 + u101 - u102  = 0
 c49:  - a74 - f74 + u29 - u30 + u91 - u92 - u177  = 0
 c50:  - a75 - f75 + u29 - u30 + u103 - u104 - u177  = 0
 c51:  - a76 - f76 + u31 - u32 + u93 - u94 - u177  = 0
 c52:  - a77 - f77 + u31 - u32 + u105 - u106  = 0
 c53:  - a78 - f78 + u33 - u34 + u95 - u96 - u177  = 0
 c54:  - a79 - f79 + u33 - u34 + u107 - u108 - u177  = 0
 c55:  - a84 - f84 + u39 - u40 + u99 - u100 - u177  = 0
 c56:  - a85 - f85 + u39 - u40 + u101 - u102 - u177  = 0
 c57:  - a89 - f89 + u43 - u44 + u105 - u106 - u177  = 0
 c58:  - a95 - f95 + u49 - u50 + u109 - u110 - u177  = 0
 c59:  - a96 - f96 + u51 - u52 + u99 - u100 - 3 u177  = 0
 c60:  - a99 - f99 + u53 - u54 + u113 - u114 - u177  = 0
 c61:  - a100 - f100 + u55 - u56 + u103 - u104 - u177  = 0
 c62:  - a101 - f101 + u55 - u56 + u115 - u116 - 2 u177  = 0
 c63:  - a104 - f104 + u59 - u60 + u107 - u108 - u177  = 0
 c64:  - a105 - f105 + u59 - u60 + u119 - u120 - u177  = 0
 c65:  - a109 - f109 + u63 - u64 + u111 - u112 - u177  = 0
 c66:  - a113 - f113 + u67 - u68 + u115 - u116 - 2 u177  = 0
 c67:  - a114 - f114 + u69 - u70 + u115 - u116 - 2 u177  = 0
 c68:  - a115 - f115 + u69 - u70 + u117 - u118 - u177  = 0
 c69:  - a116 - f116 + u71 - u72 + u117 - u118 - 2 u177  = 0
 c70:  - a117 - f117 + u71 - u72 + u119 - u120 - u177  = 0
 c71:  - a122 - f122 + u77 - u78 + u111 - u112  = 0
 c72:  - a124 - f124 + u79 - u80 + u113 - u114 - u177  = 0
 c73:  u121 - u122 + u123 - u124  = 0
 c74:  u1 - u2 + u123 - u124 + u125 - u126  = 0
 c75:  u3 - u4 + u125 - u126 + u127 - u128  = 0
 c76:  u5 - u6 + u127 - u128 + u129 - u130  = 0
 c77:  u7 - u8 + u129 - u130 + u131 - u132  = 0
 c78:  u9 - u10 + u131 - u132 + u133 - u134  = 0
 c79:  u121 - u122 + u135 - u136  = 0
 c80:  u11 - u12 + u123 - u124 + u137 - u138  = 0
 c81:  u13 - u14 + u125 - u126 + u139 - u140  = 0
 c82:  u15 - u16 + u127 - u128 + u141 - u142  = 0
 c83:  u17 - u18 + u129 - u130 + u143 - u144  = 0
 c84:  u19 - u20 + u131 - u132 + u145 - u146  = 0
 c85:  u21 - u22 + u133 - u134 + u147 - u148  = 0
 c86:  u23 - u24 + u135 - u136 + u137 - u138  = 0
 c87:  u25 - u26 + u137 - u138 + u139 - u140  = 0
 c88:  u27 - u28 + u139 - u140 + u141 - u142  = 0
 c89:  u29 - u30 + u141 - u142 + u143 - u144  = 0
 c90:  u31 - u32 + u143 - u144 + u145 - u146  = 0
 c91:  u33 - u34 + u145 - u146 + u147 - u148  = 0
 c92:  u35 - u36 + u135 - u136 + u149 - u150  = 0
 c93:  u37 - u38 + u137 - u138 + u151 - u152  = 0
 c94:  u39 - u40 + u139 - u140 + u153 - u154  = 0
 c95:  u41 - u42 + u141 - u142 + u155 - u156  = 0
 c96:  u43 - u44 + u143 - u144 + u157 - u158  = 0
 c97:  u45 - u46 + u145 - u146 + u159 - u160  = 0
 c98:  u47 - u48 + u147 - u148 + u161 - u162  = 0
 c99:  u49 - u50 + u149 - u150 + u151 - u152  = 0
 c100: u51 - u52 + u151 - u152 + u153 - u154  = 0
 c101: u53 - u54 + u153 - u154 + u155 - u156  = 0
 c102: u55 - u56 + u155 - u156 + u157 - u158  = 0
 c103: u57 - u58 + u157 - u158 + u159 - u160  = 0
 c104: u59 - u60 + u159 - u160 + u161 - u162  = 0
 c105: u61 - u62 + u149 - u150 + u163 - u164  = 0
 c106: u63 - u64 + u151 - u152 + u165 - u166  = 0
 c107: u65 - u66 + u153 - u154 + u167 - u168  = 0
 c108: u67 - u68 + u155 - u156 + u169 - u170  = 0
 c109: u69 - u70 + u157 - u158 + u171 - u172  = 0
 c110: u71 - u72 + u159 - u160 + u173 - u174  = 0
 c111: u73 - u74 + u161 - u162 + u175 - u176  = 0
 c112: u75 - u76 + u163 - u164 + u165 - u166  = 0
 c113: u77 - u78 + u165 - u166 + u167 - u168  = 0
 c114: u79 - u80 + u167 - u168 + u169 - u170  = 0
 c115: u81 - u82 + u169 - u170 + u171 - u172  = 0
 c116: u83 - u84 + u171 - u172 + u173 - u174  = 0
 c117: u85 - u86 + u173 - u174 + u175 - u176  = 0
 c118: u1 - u2 + u87 - u88 - u177 <= 0
 c119: u1 - u2 <= 0
 c120: u3 - u4 + u89 - u90 - u177 <= 0
 c121: u3 - u4 <= 0
 c122: u5 - u6 + u91 - u92 - u177 <= 0
 c123: u5 - u6 <= 0
 c124: u7 - u8 + u93 - u94 <= 0
 c125: u7 - u8 <= 0
 c126: u9 - u10 + u95 - u96 - u177 <= 0
 c127: u9 - u10 <= 0
 c128: u11 - u12 <= 0
 c129: u11 - u12 + u87 - u88 - u177 <= 0
 c130: u13 - u14 + u87 - u88 <= 0
 c131: u13 - u14 + u89 - u90 <= 0
 c132: u15 - u16 + u89 - u90 - u177 <= 0
 c133: u15 - u16 + u91 - u92 - u177 <= 0
 c134: u17 - u18 + u91 - u92 - u177 <= 0
 c135: u17 - u18 + u93 - u94 - u177 <= 0
 c136: u19 - u20 + u93 - u94 <= 0
 c137: u19 - u20 + u95 - u96 - u177 <= 0
 c138: u21 - u22 + u95 - u96 - u177 <= 0
 c139: u21 - u22 <= 0
 c140: u23 - u24 <= 0
 c141: u23 - u24 + u97 - u98 - u177 <= 0
 c142: u25 - u26 + u87 - u88 <= 0
 c143: u25 - u26 + u99 - u100 <= 0
 c144: u27 - u28 + u89 - u90 <= 0
 c145: u27 - u28 + u101 - u102 <= 0
 c146: u29 - u30 + u91 - u92 - u177 <= 0
 c147: u29 - u30 + u103 - u104 - u177 <= 0
 c148: u31 - u32 + u93 - u94 - u177 <= 0
 c149: u31 - u32 + u105 - u106 <= 0
 c150: u33 - u34 + u95 - u96 - u177 <= 0
 c151: u33 - u34 + u107 - u108 - u177 <= 0
 c152: u35 - u36 + u97 - u98 - u177 <= 0
 c153: u35 - u36 <= 0
 c154: u37 - u38 + u97 - u98 - 2 u177 <= 0
 c155: u37 - u38 + u99 - u100 - 2 u177 <= 0
 c156: u39 - u40 + u99 - u100 - u177 <= 0
 c157: u39 - u40 + u101 - u102 - u177 <= 0
 c158: u41 - u42 + u101 - u102 - u177 <= 0
 c159: u41 - u42 + u103 - u104 - u177 <= 0
 c160: u43 - u44 + u103 - u104 - 2 u177 <= 0
 c161: u43 - u44 + u105 - u106 - u177 <= 0
 c162: u45 - u46 + u105 - u106 <= 0
 c163: u45 - u46 + u107 - u108 - u177 <= 0
 c164: u47 - u48 + u107 - u108 - u177 <= 0
 c165: u47 - u48 <= 0
 c166: u49 - u50 + u97 - u98 - 2 u177 <= 0
 c167: u49 - u50 + u109 - u110 - u177 <= 0
 c168: u51 - u52 + u99 - u100 - 3 u177 <= 0
 c169: u51 - u52 + u111 - u112 - 2 u177 <= 0
 c170: u53 - u54 + u101 - u102 - 2 u177 <= 0
 c171: u53 - u54 + u113 - u114 - u177 <= 0
 c172: u55 - u56 + u103 - u104 - u177 <= 0
 c173: u55 - u56 + u115 - u116 - 2 u177 <= 0
 c174: u57 - u58 + u105 - u106 - u177 <= 0
 c175: u57 - u58 + u117 - u118 - 2 u177 <= 0
 c176: u59 - u60 + u107 - u108 - u177 <= 0
 c177: u59 - u60 + u119 - u120 - u177 <= 0
 c178: u61 - u62 + u109 - u110 <= 0
 c179: u61 - u62 <= 0
 c180: u63 - u64 + u109 - u110 - u177 <= 0
 c181: u63 - u64 + u111 - u112 - u177 <= 0
 c182: u65 - u66 + u111 - u112 - u177 <= 0
 c183: u65 - u66 + u113 - u114 - 2 u177 <= 0
 c184: u67 - u68 + u113 - u114 - u177 <= 0
 c185: u67 - u68 + u115 - u116 - 2 u177 <= 0
 c186: u69 - u70 + u115 - u116 - 2 u177 <= 0
 c187: u69 - u70 + u117 - u118 - u177 <= 0
 c188: u71 - u72 + u117 - u118 - 2 u177 <= 0
 c189: u71 - u72 + u119 - u120 - u177 <= 0
 c190: u73 - u74 + u119 - u120 <= 0
 c191: u73 - u74 <= 0
 c192: u75 - u76 + u109 - u110 <= 0
 c193: u75 - u76 <= 0
 c194: u77 - u78 + u111 - u112 <= 0
 c195: u77 - u78 <= 0
 c196: u79 - u80 + u113 - u114 - u177 <= 0
 c197: u79 - u80 - u177 <= 0
 c198: u81 - u82 + u115 - u116 - 2 u177 <= 0
 c199: u81 - u82 <= 0
 c200: u83 - u84 + u117 - u118 - u177 <= 0
 c201: u83 - u84 <= 0
 c202: u85 - u86 + u119 - u120 - u177 <= 0
 c203: u85 - u86 - u177 <= 0
 c204: u177  = 0
Bounds
      a0 Free
      a1 Free
      a2 Free
      a3 Free
      a4 Free
      a5 Free
      a6 Free
      a7 Free
      a9 Free
      a10 Free
      a11 Free
      a12 Free
      a13 Free
      a15 Free
      a16 Free
      a17 Free
      a18 Free
      a20 Free
      a21 Free
      a22 Free
      a23 Free
      a24 Free
      a25 Free
      a26 Free
      a28 Free
      a29 Free
      a30 Free
      a31 Free
      a33 Free
      a34 Free
      a35 Free
      a36 Free
      a39 Free
      a40 Free
      a41 Free
      a42 Free
      a43 Free
      a44 Free
      a45 Free
      a48 Free
      a50 Free
      a52 Free
      a57 Free
      a59 Free
      a61 Free
      a65 Free
      a69 Free
      a73 Free
      a74 Free
      a75 Free
      a76 Free
      a77 Free
      a78 Free
      a79 Free
      a84 Free
      a85 Free
      a89 Free
      a95 Free
      a96 Free
      a99 Free
      a100 Free
      a101 Free
      a104 Free
      a105 Free
      a109 Free
      a113 Free
      a114 Free
      a115 Free
      a116 Free
      a117 Free
      a122 Free
      a124 Free
 0 <= f0 <= 0.99
 0 <= f1 <= 0.99
 0 <= f2 <= 0.99
 0 <= f3 <= 0.99
 0 <= f4 <= 0.99
 0 <= f5 <= 0.99
 0 <= f6 <= 0.99
 0 <= f7 <= 0.99
 0 <= f9 <= 0.99
 0 <= f10 <= 0.99
 0 <= f11 <= 0.99
 0 <= f12 <= 0.99
 0 <= f13 <= 0.99
 0 <= f15 <= 0.99
 0 <= f16 <= 0.99
 0 <= f17 <= 0.99
 0 <= f18 <= 0.99
 0 <= f20 <= 0.99
 0 <= f21 <= 0.99
 0 <= f22 <= 0.99
 0 <= f23 <= 0.99
 0 <= f24 <= 0.99
 0 <= f25 <= 0.99
 0 <= f26 <= 0.99
 0 <= f28 <= 0.99
 0 <= f29 <= 0.99
 0 <= f30 <= 0.99
 0 <= f31 <= 0.99
 0 <= f33 <= 0.99
 0 <= f34 <= 0.99
 0 <= f35 <= 0.99
 0 <= f36 <= 0.99
 0 <= f39 <= 0.99
 0 <= f40 <= 0.99
 0 <= f41 <= 0.99
 0 <= f42 <= 0.99
 0 <= f43 <= 0.99
 0 <= f44 <= 0.99
 0 <= f45 <= 0.99
 0 <= f48 <= 0.99
 0 <= f50 <= 0.99
 0 <= f52 <= 0.99
 0 <= f57 <= 0.99
 0 <= f59 <= 0.99
 0 <= f61 <= 0.99
 0 <= f65 <= 0.99
 0 <= f69 <= 0.99
 0 <= f73 <= 0.99
 0 <= f74 <= 0.99
 0 <= f75 <= 0.99
 0 <= f76 <= 0.99
 0 <= f77 <= 0.99
 0 <= f78 <= 0.99
 0 <= f79 <= 0.99
 0 <= f84 <= 0.99
 0 <= f85 <= 0.99
 0 <= f89 <= 0.99
 0 <= f95 <= 0.99
 0 <= f96 <= 0.99
 0 <= f99 <= 0.99
 0 <= f100 <= 0.99
 0 <= f101 <= 0.99
 0 <= f104 <= 0.99
 0 <= f105 <= 0.99
 0 <= f109 <= 0.99
 0 <= f113 <= 0.99
 0 <= f114 <= 0.99
 0 <= f115 <= 0.99
 0 <= f116 <= 0.99
 0 <= f117 <= 0.99
 0 <= f122 <= 0.99
 0 <= f124 <= 0.99
Generals
 a0  a1  a2  a3  a4  a5  a6  a7  a9  a10  a11  a12  a13  a15  a16  a17  a18 
 a20  a21  a22  a23  a24  a25  a26  a28  a29  a30  a31  a33  a34  a35  a36 
 a39  a40  a41  a42  a43  a44  a45  a48  a50  a52  a57  a59  a61  a65  a69 
 a73  a74  a75  a76  a77  a78  a79  a84  a85  a89  a95  a96  a99  a100  a101 
 a104  a105  a109  a113  a114  a115  a116  a117  a122  a124 
End
